
Gurobi 10.0.3 (linux64, gurobi_cl) logging started Thu Nov  9 11:54:13 2023

Set parameter Username
Set parameter TimeLimit to value 3600
Set parameter LogFile to value "RCPSP_1323.log"
Set parameter Threads to value 32
Academic license - for non-commercial use only - expires 2024-10-30
Using license file /home/jrivera6/gurobi-licenses/v1003/compute-0-34/gurobi.lic

Gurobi Optimizer version 10.0.3 build v10.0.3rc0 (linux64)
Copyright (c) 2023, Gurobi Optimization, LLC

Read MPS format model from file RCPSP_1323.mps
Reading time = 0.06 seconds
RCPSP_1323: 42975 rows, 17020 columns, 142890 nonzeros

CPU model: Intel(R) Xeon(R) Gold 6130 CPU @ 2.10GHz, instruction set [SSE2|AVX|AVX2|AVX512]
Thread count: 32 physical cores, 32 logical processors, using up to 32 threads

Optimize a model with 42975 rows, 17020 columns and 142890 nonzeros
Model fingerprint: 0xc4f7eb89
Variable types: 92 continuous, 16928 integer (16928 binary)
Coefficient statistics:
  Matrix range     [1e+00, 5e+02]
  Objective range  [1e+00, 1e+00]
  Bounds range     [1e+00, 1e+00]
  RHS range        [1e+00, 5e+02]
Presolve removed 9993 rows and 2474 columns (presolve time = 5s) ...
Presolve removed 9993 rows and 2474 columns (presolve time = 10s) ...
Presolve removed 16245 rows and 4917 columns
Presolve time: 11.67s
Presolved: 26730 rows, 12103 columns, 91177 nonzeros
Variable types: 91 continuous, 12012 integer (12012 binary)

Root simplex log...

Iteration    Objective       Primal Inf.    Dual Inf.      Time
       0    1.1500000e+02   9.001800e+04   0.000000e+00     12s
    3900    1.1500000e+02   0.000000e+00   0.000000e+00     12s

Root relaxation: objective 1.150000e+02, 3900 iterations, 0.28 seconds (0.07 work units)

    Nodes    |    Current Node    |     Objective Bounds      |     Work
 Expl Unexpl |  Obj  Depth IntInf | Incumbent    BestBd   Gap | It/Node Time

     0     0  115.00000    0   79          -  115.00000      -     -   13s
     0     0  116.00000    0  398          -  116.00000      -     -   31s
     0     0  116.00000    0  410          -  116.00000      -     -   32s
     0     0  116.64892    0  561          -  116.64892      -     -   37s
     0     0  116.64892    0  515          -  116.64892      -     -   38s
     0     0  116.64892    0  455          -  116.64892      -     -   39s
     0     0  117.00000    0  562          -  117.00000      -     -   42s
     0     0  117.00000    0  511          -  117.00000      -     -   47s
     0     0  117.00000    0  588          -  117.00000      -     -   48s
     0     0  117.00000    0  485          -  117.00000      -     -   51s
     0     0  117.00000    0  482          -  117.00000      -     -   51s
     0     0  117.00000    0  539          -  117.00000      -     -   57s
     0     0  117.00000    0  464          -  117.00000      -     -   58s
     0     0  117.00000    0  457          -  117.00000      -     -   58s
     0     0  117.00000    0  370          -  117.00000      -     -   66s
     0     0  117.00000    0   89          -  117.00000      -     -   77s
     0     0  117.00000    0  238          -  117.00000      -     -   79s
     0     0  117.00000    0  178          -  117.00000      -     -   85s
     0     0  117.00000    0  310          -  117.00000      -     -   88s
     0     0  117.00000    0  221          -  117.00000      -     -   99s
     0     0  117.01532    0  390          -  117.01532      -     -  106s
     0     0  117.01538    0  473          -  117.01538      -     -  107s
     0     0  117.01538    0  448          -  117.01538      -     -  107s
     0     0  117.83767    0  224          -  117.83767      -     -  115s
     0     0  117.83767    0  364          -  117.83767      -     -  117s
     0     0  117.83767    0  348          -  117.83767      -     -  117s
     0     0  117.83767    0  519          -  117.83767      -     -  119s
     0     0  117.83767    0  588          -  117.83767      -     -  120s
     0     0  117.83767    0  576          -  117.83767      -     -  120s
     0     0  117.83767    0  444          -  117.83767      -     -  123s
     0     0  117.83767    0  373          -  117.83767      -     -  123s
     0     0  117.83767    0  363          -  117.83767      -     -  123s
     0     0  118.03340    0  138          -  118.03340      -     -  134s
     0     0  118.03340    0  295          -  118.03340      -     -  135s
     0     0  118.03340    0  299          -  118.03340      -     -  138s
     0     0  118.03340    0  293          -  118.03340      -     -  138s
     0     0  118.03340    0  342          -  118.03340      -     -  148s
     0     0  118.10297    0  156          -  118.10297      -     -  152s
     0     0  118.10297    0  237          -  118.10297      -     -  155s
     0     0  118.55556    0  398          -  118.55556      -     -  159s
     0     0  118.55556    0  324          -  118.55556      -     -  160s
     0     0  118.55556    0  323          -  118.55556      -     -  160s
     0     0  118.55556    0  401          -  118.55556      -     -  161s
     0     0  118.55556    0  357          -  118.55556      -     -  164s
     0     0  118.55556    0  385          -  118.55556      -     -  165s
     0     0  118.55556    0  378          -  118.55556      -     -  165s
     0     0  118.55556    0  179          -  118.55556      -     -  171s
     0     0  118.55556    0  389          -  118.55556      -     -  174s
     0     0  118.55556    0  164          -  118.55556      -     -  185s
     0     0  118.55556    0  287          -  118.55556      -     -  187s
     0     0  118.55556    0  176          -  118.55556      -     -  197s
     0     0  118.55556    0  176          -  118.55556      -     -  198s
     0     0  118.55556    0  117          -  118.55556      -     -  206s
     0     2  118.55556    0  117          -  118.55556      -     -  224s
     1     3  119.28261    1  105          -  119.00000      -  1068  229s
     3     6  119.28261    2  103          -  119.00000      -   427  231s
     6    12  119.91667    3  102          -  119.00000      -   238  236s
    12    24  119.91667    4  176          -  119.00000      -   177  245s
    24    44  119.91667    5  269          -  119.00000      -   404  256s
    48    72  119.91667    6  252          -  119.00000      -   480  272s
    80   100  119.91667    7  263          -  119.00000      -   611  283s
   112   124  120.00000    8  523          -  119.00000      -   482  292s
   144   152  120.00000    9  521          -  119.00000      -   381  296s
   176   189  120.00000   10  541          -  119.00000      -   317  302s
   216   216  120.00000   11  429          -  119.00000      -   270  307s
   254   252  120.00000   12  427          -  119.00000      -   235  313s
   294   293  120.00000   13  428          -  119.00000      -   211  319s
   341   331  122.00000   14  463          -  119.00000      -   192  379s
   381   372  122.00000   15  457          -  119.00000      -   183  383s
   425   411  122.00000   16  455          -  119.00000      -   166  388s
   467   458  122.00000   17  499          -  119.00000      -   155  394s
   515   503  122.00000   18  489          -  119.00000      -   143  400s
   639   629  122.00000   20  556          -  119.00000      -   119  408s
   699   693  122.00000   21  545          -  119.00000      -   110  411s
   768   765  122.00000   22  543          -  119.00000      -   101  418s
   853   852  122.00000   24  537          -  119.00000      -  97.0  435s
   944   961  122.00000   25  535          -  119.00000      -  95.2  446s
  1060  1108  122.00000   27  519          -  119.00000      -  88.4  450s
  1210  1296  122.00000   29  510          -  119.00000      -  80.4  457s
  1416  1493  122.00000   31  523          -  119.00000      -  71.2  462s
  1635  1673  122.00000   37  512          -  119.00000      -  64.3  469s
  1852  1794  122.00000   48  532          -  119.00000      -  60.2  475s
  1981  1996  122.00000   49  530          -  119.00000      -  61.2  485s
  2187  2184  122.00000   51  481          -  119.00000      -  59.2  502s
  2381  2330  128.00000   53  490          -  119.00000      -  58.2  513s
  2572  2430  128.00000   54  517          -  119.00000      -  58.0  528s
  2692  2637  128.00000   69  506          -  119.00000      -  59.6  534s
  2937  2929  137.00000   78  539          -  119.00000      -  58.0  550s
  3281  3072  150.00000   95  562          -  119.00000      -  55.5  561s
  3500  3204  142.00000   99  563          -  119.00000      -  56.0  569s
  3683  3399 infeasible  108               -  119.00000      -  57.2  583s
  3929  3400  134.00000   64  117          -  119.00000      -  57.3  644s
  3931  3401  140.00000   40   81          -  119.00000      -  57.3  816s
  3932  3402  139.00000  103  120          -  119.00000      -  57.3  847s
  3933  3403  135.00000   39  215          -  119.00000      -  57.3  856s
  3934  3403  140.00000   46   83          -  119.00000      -  57.3  871s
  3935  3404  128.00000   11  387          -  119.00000      -  57.2  876s
  3936  3405  136.00000   62  162          -  119.00000      -  57.2  885s
  3938  3406  129.00000   79  257          -  119.00041      -  57.2  901s
  3940  3407  133.00000    6  135          -  119.04501      -  57.2  914s
  3941  3408  123.00000   21  293          -  119.04655      -  57.2  916s
  3942  3409  129.00000   92  246          -  119.11677      -  57.1  921s
  3947  3412  142.00000   25  139          -  119.26597      -  57.1  931s
  3950  3414  126.00000   12  182          -  119.26597      -  57.0  951s
  3952  3415  126.00000   36  459          -  119.26597      -  57.0 1006s
  3953  3416  147.00000   43  302          -  119.27280      -  57.0 1012s
  3956  3418  140.00000   85  533          -  119.29922      -  56.9 1017s
  3957  3419  142.19619   58  411          -  119.31561      -  56.9 1030s
  3959  3420  138.00000   39  680          -  119.32267      -  56.9 1035s
  3960  3421  144.00000   19  157          -  119.45737      -  56.9 1043s
  3961  3421  139.00000   50  293          -  119.45941      -  56.9 1045s
  3962  3422  129.00000   93  246          -  119.51998      -  56.9 1053s
  3964  3423  128.00000   58  450          -  119.54592      -  56.8 1055s
  3965  3424  133.00000   93  233          -  119.65673      -  56.8 1060s
  3967  3425  124.00000   32  389          -  119.85594      -  56.8 1066s
  3970  3427  129.00000   14  553          -  119.88247      -  56.7 1070s
  3971  3428  139.00000  111  192          -  119.92365      -  56.7 1079s
  3972  3429  136.00000   83  316          -  119.93128      -  56.7 1080s
  3975  3431  129.00000   89  114          -  120.00000      -  56.7 1088s
  3976  3431  130.00000   52  470          -  120.00000      -  56.7 1091s
  3977  3432  122.00000   36  148          -  120.00000      -  56.6 1097s
  3978  3433  129.00000   53  444          -  120.00000      -  56.6 1100s
  3979  3433  138.00000  103  123          -  120.00000      -  56.6 1115s
  3980  3434  145.00000   41  501          -  120.00001      -  56.6 1122s
  3981  3435  136.00000   35  584          -  120.00001      -  56.6 1131s
  3982  3435  124.00000   40  746          -  120.00001      -  56.6 1139s
  3983  3436  131.00000   80  410          -  120.00001      -  56.6 1149s
  3984  3437  140.00000   53  373          -  120.00001      -  56.5 1152s
  3985  3437  127.00000   33  373          -  120.00001      -  56.5 1158s
  3986  3441  120.00001   12  228          -  120.00001      -  47.0 1207s
  3988  3444  120.00001   13  232          -  120.00001      -  47.1 1267s
H 3992  3278                     474.0000000  120.00001  74.7%  47.8 1351s
H 4000  3127                     192.0000000  120.00001  37.5%  48.4 1979s
H 4001  2971                     184.0000000  120.00001  34.8%  48.4 1979s
H 4002  2822                     183.0000000  120.00001  34.4%  48.4 1979s
  4016  2849  120.00001   16  436  183.00000  120.00001  34.4%  49.5 2498s
H 4048  2730                     173.0000000  120.00001  30.6%  57.9 3116s
H 4056  2594                     171.0000000  120.00001  29.8%  59.8 3118s
H 4073  2461                     170.0000000  120.00001  29.4%  63.7 3118s
H 4075  2339                     167.0000000  120.00001  28.1%  64.1 3118s
  4080  2370  125.00000   17  566  167.00000  120.00001  28.1%  65.3 3185s
  4112  2391  120.00001   18  575  167.00000  120.00001  28.1%  67.0 3685s
H 4113  2277                     166.0000000  120.00001  27.7%  67.0 3685s
H 4115  2167                     165.0000000  120.00001  27.3%  67.3 3685s
H 4116  2063                     163.0000000  120.00001  26.4%  67.4 3685s
H 4122  1963                     159.0000000  120.00001  24.5%  67.6 3685s

Cutting planes:
  Learned: 6
  Gomory: 22
  Cover: 50
  Implied bound: 8
  Clique: 6
  MIR: 104
  StrongCG: 6
  Flow cover: 363
  Zero half: 10
  RLT: 48
  Relax-and-lift: 86

Explored 4144 nodes (595306 simplex iterations) in 3692.16 seconds (130.37 work units)
Thread count was 32 (of 32 available processors)

Solution count 10: 159 163 165 ... 184

Time limit reached
Best objective 1.590000000000e+02, best bound 1.200000109424e+02, gap 24.5283%

Wrote result file 'RCPSP_1323.sol'

